653,397
874,140
892,115
994,305
947,364
782,719
744,469
795,369
653,397
450,-48
254,545
620,791
760,909
912,-48
885,6
912,-48
531,406
644,643
744,469
444,443
435,67
1045,142
1069,124
1045,670
891,406
947,364
850,237
795,369
1045,670
552,805
681,766
620,791
